clasp version 2.1.3
Reading from asp/inst/pb_400_08.lp
Solving...
UNKNOWN

TIME LIMIT  : 1
Models      : 0+    
Time        : 1799.999s (Solving: 1795.02s 1st Model: 0.00s Unsat: 0.00s)
CPU Time    : 1795.930s
Choices     : 8082158
Conflicts   : 770784
Restarts    : 20     (Average: 38539.20 Last: 664856)

Atoms       : 678888 (Original: 20566 Auxiliary: 658322)
Rules       : 1372055 (1: 33739/1369610 2: 2045/0 3: 400/0)
Bodies      : 1308754
Equivalences: 1375468 (Atom=Atom: 7293 Body=Body: 8400 Other: 1359775)
Tight       : Yes

Variables   : 1295101 (Eliminated:    0 Frozen:    0)
Constraints : 3854228 (Binary: 67.6% Ternary: 32.3% Other:  0.1%)
Lemmas      : 770784 (Binary:  0.8% Ternary:  0.7% Other: 98.5%)
  Conflict  : 770784 (Average Length: 767.9) 
  Loop      : 0      (Average Length: 0.0) 
  Other     : 0      (Average Length: 0.0)
  Deleted   : 715025
